sat
(:max-memory         18.42
 :memory             18.33
 :nlsat-arith-var    3
 :nlsat-atoms        4
 :nlsat-bool-var     1
 :nlsat-clauses      4
 :nlsat-propagations 4
 :nlsat-stages       4
 :num-allocs         51196
 :rlimit-count       868
 :time               0.00)
